# Auto-generated include: gauss pairs mapped to pair_style table
# Use with e.g.: pair_style hybrid/overlay ... table/kk linear N
# Then: include this file

pair_coeff  26 119 table gauss.table G_26_119 6.96
pair_coeff  26 120 table gauss.table G_26_120 5.88
pair_coeff  27 119 table gauss.table G_27_119 8.039999999999999
pair_coeff  27 120 table gauss.table G_27_120 6.119999999999999
pair_coeff  28 114 table gauss.table G_28_114 9.48
pair_coeff  29 76 table gauss.table G_29_76 8.639999999999999
pair_coeff  30 74 table gauss.table G_30_74 7.319999999999999
pair_coeff  30 75 table gauss.table G_30_75 7.619999999999999
pair_coeff  30 76 table gauss.table G_30_76 6.359999999999999
pair_coeff  30 77 table gauss.table G_30_77 8.52
pair_coeff  31 73 table gauss.table G_31_73 9.6
pair_coeff  31 74 table gauss.table G_31_74 7.56
pair_coeff  31 75 table gauss.table G_31_75 6.9
pair_coeff  31 76 table gauss.table G_31_76 5.94
pair_coeff  31 77 table gauss.table G_31_77 7.62
pair_coeff  31 78 table gauss.table G_31_78 9
pair_coeff  32 72 table gauss.table G_32_72 8.279999999999999
pair_coeff  32 73 table gauss.table G_32_73 6.48
pair_coeff  32 74 table gauss.table G_32_74 6.54
pair_coeff  32 75 table gauss.table G_32_75 6.839999999999999
pair_coeff  32 76 table gauss.table G_32_76 8.279999999999999
pair_coeff  33 74 table gauss.table G_33_74 8.699999999999999
pair_coeff  34 74 table gauss.table G_34_74 9.48
pair_coeff  35 74 table gauss.table G_35_74 8.16
pair_coeff  36 106 table gauss.table G_36_106 9.24
pair_coeff  36 144 table gauss.table G_36_144 8.76
pair_coeff  37 144 table gauss.table G_37_144 7.8
pair_coeff  38 74 table gauss.table G_38_74 7.079999999999999
pair_coeff  39 106 table gauss.table G_39_106 8.88
pair_coeff  39 107 table gauss.table G_39_107 8.639999999999999
pair_coeff  39 128 table gauss.table G_39_128 8.4
pair_coeff  40 129 table gauss.table G_40_129 9.24
pair_coeff  41 146 table gauss.table G_41_146 9
pair_coeff  41 147 table gauss.table G_41_147 9.36
pair_coeff  42 147 table gauss.table G_42_147 9.42
pair_coeff  43 145 table gauss.table G_43_145 9.119999999999999
pair_coeff  43 146 table gauss.table G_43_146 6.42
pair_coeff  43 147 table gauss.table G_43_147 4.92
pair_coeff  43 148 table gauss.table G_43_148 9.359999999999999
pair_coeff  43 149 table gauss.table G_43_149 9.6
pair_coeff  43 150 table gauss.table G_43_150 8.34
pair_coeff  44 147 table gauss.table G_44_147 6.6
pair_coeff  44 150 table gauss.table G_44_150 8.58
pair_coeff  45 147 table gauss.table G_45_147 9.36
pair_coeff  45 150 table gauss.table G_45_150 8.76
pair_coeff  46 179 table gauss.table G_46_179 9.48
pair_coeff  47 178 table gauss.table G_47_178 8.88
pair_coeff  47 179 table gauss.table G_47_179 7.5
pair_coeff  48 173 table gauss.table G_48_173 9.24
pair_coeff  48 174 table gauss.table G_48_174 9.48
pair_coeff  48 179 table gauss.table G_48_179 6.84
pair_coeff  49 179 table gauss.table G_49_179 7.56
pair_coeff  49 181 table gauss.table G_49_181 9.18
pair_coeff  49 182 table gauss.table G_49_182 8.46
pair_coeff  50 181 table gauss.table G_50_181 8.639999999999999
pair_coeff  50 182 table gauss.table G_50_182 6.6
pair_coeff  50 183 table gauss.table G_50_183 8.22
pair_coeff  51 151 table gauss.table G_51_151 7.44
pair_coeff  51 179 table gauss.table G_51_179 8.76
pair_coeff  51 181 table gauss.table G_51_181 7.8
pair_coeff  51 182 table gauss.table G_51_182 7.68
pair_coeff  52 150 table gauss.table G_52_150 9.36
pair_coeff  52 151 table gauss.table G_52_151 6.60
pair_coeff  52 167 table gauss.table G_52_167 9.48
pair_coeff  52 177 table gauss.table G_52_177 9.36
pair_coeff  52 178 table gauss.table G_52_178 8.46
pair_coeff  52 179 table gauss.table G_52_179 7.5
pair_coeff  52 180 table gauss.table G_52_180 6.839999999999999
pair_coeff  52 181 table gauss.table G_52_181 7.199999999999999
pair_coeff  52 182 table gauss.table G_52_182 8.279999999999999
pair_coeff  53 150 table gauss.table G_53_150 9.059999999999999
pair_coeff  53 151 table gauss.table G_53_151 7.859999999999999
pair_coeff  54 171 table gauss.table G_54_171 9.359999999999999
pair_coeff  55 169 table gauss.table G_55_169 8.16
pair_coeff  56 168 table gauss.table G_56_168 8.82
pair_coeff  56 169 table gauss.table G_56_169 5.94
pair_coeff  56 170 table gauss.table G_56_170 9.12
pair_coeff  56 171 table gauss.table G_56_171 8.639999999999999
pair_coeff  56 172 table gauss.table G_56_172 8.76
pair_coeff  57 169 table gauss.table G_57_169 6.9
pair_coeff  57 170 table gauss.table G_57_170 8.039999999999999
pair_coeff  57 171 table gauss.table G_57_171 8.1
pair_coeff  58 142 table gauss.table G_58_142 8.039999999999999
pair_coeff  58 168 table gauss.table G_58_168 8.4
pair_coeff  58 169 table gauss.table G_58_169 6
pair_coeff  58 170 table gauss.table G_58_170 7.38
pair_coeff  58 171 table gauss.table G_58_171 9.12
pair_coeff  59 142 table gauss.table G_59_142 8.16
pair_coeff  59 170 table gauss.table G_59_170 8.639999999999999
pair_coeff  60 123 table gauss.table G_60_123 8.4
pair_coeff  61 120 table gauss.table G_61_120 9.48
pair_coeff  61 121 table gauss.table G_61_121 8.52
pair_coeff  61 122 table gauss.table G_61_122 9.36
pair_coeff  61 123 table gauss.table G_61_123 6
pair_coeff  61 195 table gauss.table G_61_195 9.119999999999999
pair_coeff  62 123 table gauss.table G_62_123 8.76
pair_coeff  63 123 table gauss.table G_63_123 7.079999999999999
pair_coeff  64 123 table gauss.table G_64_123 5.76
pair_coeff  64 124 table gauss.table G_64_124 7.68
pair_coeff  65 136 table gauss.table G_65_136 9.119999999999999
pair_coeff  65 191 table gauss.table G_65_191 8.16
pair_coeff  65 194 table gauss.table G_65_194 7.8
pair_coeff  66 134 table gauss.table G_66_134 8.4
pair_coeff  66 135 table gauss.table G_66_135 6.24
pair_coeff  66 136 table gauss.table G_66_136 7.199999999999999
pair_coeff  66 191 table gauss.table G_66_191 8.76
pair_coeff  67 135 table gauss.table G_67_135 9.24
pair_coeff  68 191 table gauss.table G_68_191 7.8
pair_coeff  69 190 table gauss.table G_69_190 5.88
pair_coeff  69 191 table gauss.table G_69_191 5.159999999999999
pair_coeff  69 192 table gauss.table G_69_192 9.24
pair_coeff  70 190 table gauss.table G_70_190 7.56
pair_coeff  70 191 table gauss.table G_70_191 7.44
pair_coeff  70 193 table gauss.table G_70_193 8.639999999999999
pair_coeff  71 193 table gauss.table G_71_193 9.36
pair_coeff  79 135 table gauss.table G_79_135 8.4
pair_coeff  80 140 table gauss.table G_80_140 8.639999999999999
pair_coeff  81 139 table gauss.table G_81_139 9
pair_coeff  81 140 table gauss.table G_81_140 8.039999999999999
pair_coeff  81 141 table gauss.table G_81_141 9.119999999999999
pair_coeff  82 137 table gauss.table G_82_137 9.119999999999999
pair_coeff  82 138 table gauss.table G_82_138 8.52
pair_coeff  82 139 table gauss.table G_82_139 8.52
pair_coeff  83 131 table gauss.table G_83_131 7.44
pair_coeff  84 131 table gauss.table G_84_131 8.039999999999999
pair_coeff  85 130 table gauss.table G_85_130 8.88
pair_coeff  85 131 table gauss.table G_85_131 8.039999999999999
pair_coeff  86 185 table gauss.table G_86_185 8.52
pair_coeff  87 185 table gauss.table G_87_185 5.52
pair_coeff  87 186 table gauss.table G_87_186 5.76
pair_coeff  87 187 table gauss.table G_87_187 9.48
pair_coeff  87 188 table gauss.table G_87_188 9.119999999999999
pair_coeff  87 189 table gauss.table G_87_189 8.279999999999999
pair_coeff  87 190 table gauss.table G_87_190 9.119999999999999
pair_coeff  88 135 table gauss.table G_88_135 9.36
pair_coeff  88 184 table gauss.table G_88_184 8.88
pair_coeff  88 185 table gauss.table G_88_185 7.8
pair_coeff  88 186 table gauss.table G_88_186 6.839999999999999
pair_coeff  89 184 table gauss.table G_89_184 7.199999999999999
pair_coeff  89 185 table gauss.table G_89_185 8.639999999999999
pair_coeff  90 131 table gauss.table G_90_131 9.6
pair_coeff  90 132 table gauss.table G_90_132 6.36
pair_coeff  90 134 table gauss.table G_90_134 8.639999999999999
pair_coeff  90 135 table gauss.table G_90_135 6.36
pair_coeff  90 136 table gauss.table G_90_136 9.119999999999999
pair_coeff  90 184 table gauss.table G_90_184 8.52
pair_coeff  91 132 table gauss.table G_91_132 7.8
pair_coeff  91 134 table gauss.table G_91_134 9.36
pair_coeff  91 135 table gauss.table G_91_135 6.839999999999999
pair_coeff  92 132 table gauss.table G_92_132 6.24
pair_coeff  92 133 table gauss.table G_92_133 6.6
pair_coeff  92 134 table gauss.table G_92_134 6.6
pair_coeff  92 135 table gauss.table G_92_135 6.48
pair_coeff  93 132 table gauss.table G_93_132 8.4
pair_coeff  93 133 table gauss.table G_93_133 5.76
pair_coeff  93 134 table gauss.table G_93_134 4.919999999999999
pair_coeff  93 135 table gauss.table G_93_135 6.839999999999999
pair_coeff  94 133 table gauss.table G_94_133 6.24
pair_coeff  94 134 table gauss.table G_94_134 7.8
pair_coeff  95 177 table gauss.table G_95_177 9.48
pair_coeff  95 178 table gauss.table G_95_178 7.319999999999999
pair_coeff  96 175 table gauss.table G_96_175 9
pair_coeff  96 176 table gauss.table G_96_176 5.7
pair_coeff  96 177 table gauss.table G_96_177 7.44
pair_coeff  96 178 table gauss.table G_96_178 8.76
pair_coeff  97 176 table gauss.table G_97_176 6.84
pair_coeff  97 177 table gauss.table G_97_177 6.96
pair_coeff  97 178 table gauss.table G_97_178 9.48
pair_coeff  98 176 table gauss.table G_98_176 9.30
pair_coeff  99 153 table gauss.table G_99_153 6.24
pair_coeff  99 154 table gauss.table G_99_154 7.619999999999999
pair_coeff  99 177 table gauss.table G_99_177 9.48
pair_coeff  100 150 table gauss.table G_100_150 8.76
pair_coeff  100 151 table gauss.table G_100_151 9.24
pair_coeff  100 152 table gauss.table G_100_152 8.399999999999999
pair_coeff  100 153 table gauss.table G_100_153 5.52
pair_coeff  100 154 table gauss.table G_100_154 7.5
pair_coeff  101 154 table gauss.table G_101_154 8.16
pair_coeff  101 155 table gauss.table G_101_155 8.34
pair_coeff  102 150 table gauss.table G_102_150 7.98
pair_coeff  103 147 table gauss.table G_103_147 9.12
pair_coeff  104 143 table gauss.table G_104_143 9
pair_coeff  105 142 table gauss.table G_105_142 8.52
pair_coeff  105 143 table gauss.table G_105_143 8.94
pair_coeff  108 160 table gauss.table G_108_160 9.36
pair_coeff  108 161 table gauss.table G_108_161 8.039999999999999
pair_coeff  108 162 table gauss.table G_108_162 6.96
pair_coeff  109 158 table gauss.table G_109_158 9.6
pair_coeff  109 159 table gauss.table G_109_159 8.039999999999999
pair_coeff  109 160 table gauss.table G_109_160 5.52
pair_coeff  109 161 table gauss.table G_109_161 5.04
pair_coeff  109 162 table gauss.table G_109_162 5.159999999999999
pair_coeff  110 158 table gauss.table G_110_158 8.4
pair_coeff  110 159 table gauss.table G_110_159 6.6
pair_coeff  110 160 table gauss.table G_110_160 7.199999999999999
pair_coeff  110 161 table gauss.table G_110_161 6.96
pair_coeff  110 162 table gauss.table G_110_162 6
pair_coeff  110 163 table gauss.table G_110_163 9.36
pair_coeff  111 162 table gauss.table G_111_162 9.48
pair_coeff  112 162 table gauss.table G_112_162 8.88
pair_coeff  113 160 table gauss.table G_113_160 7.44
pair_coeff  113 161 table gauss.table G_113_161 9.48
pair_coeff  115 160 table gauss.table G_115_160 9.48
pair_coeff  116 157 table gauss.table G_116_157 8.639999999999999
pair_coeff  116 160 table gauss.table G_116_160 6.72
pair_coeff  117 156 table gauss.table G_117_156 8.279999999999999
pair_coeff  117 157 table gauss.table G_117_157 7.56
pair_coeff  117 160 table gauss.table G_117_160 9.6
pair_coeff  118 157 table gauss.table G_118_157 7.56
pair_coeff  125 164 table gauss.table G_125_164 8.88
pair_coeff  125 165 table gauss.table G_125_165 7.8
pair_coeff  125 166 table gauss.table G_125_166 8.88
pair_coeff  126 164 table gauss.table G_126_164 8.279999999999999
pair_coeff  127 164 table gauss.table G_127_164 8.639999999999999
pair_coeff  127 165 table gauss.table G_127_165 9.48

