# Override: set soft=0.0 for pairs that have gauss interactions
# (to avoid double-counting / lifting gauss wells)

pair_coeff 26 119 soft 0.0
pair_coeff 26 120 soft 0.0
pair_coeff 27 119 soft 0.0
pair_coeff 27 120 soft 0.0
pair_coeff 28 114 soft 0.0
pair_coeff 29 76 soft 0.0
pair_coeff 30 74 soft 0.0
pair_coeff 30 75 soft 0.0
pair_coeff 30 76 soft 0.0
pair_coeff 30 77 soft 0.0
pair_coeff 31 73 soft 0.0
pair_coeff 31 74 soft 0.0
pair_coeff 31 75 soft 0.0
pair_coeff 31 76 soft 0.0
pair_coeff 31 77 soft 0.0
pair_coeff 31 78 soft 0.0
pair_coeff 32 72 soft 0.0
pair_coeff 32 73 soft 0.0
pair_coeff 32 74 soft 0.0
pair_coeff 32 75 soft 0.0
pair_coeff 32 76 soft 0.0
pair_coeff 33 74 soft 0.0
pair_coeff 34 74 soft 0.0
pair_coeff 35 74 soft 0.0
pair_coeff 36 106 soft 0.0
pair_coeff 36 144 soft 0.0
pair_coeff 37 144 soft 0.0
pair_coeff 38 74 soft 0.0
pair_coeff 39 106 soft 0.0
pair_coeff 39 107 soft 0.0
pair_coeff 39 128 soft 0.0
pair_coeff 40 129 soft 0.0
pair_coeff 41 146 soft 0.0
pair_coeff 41 147 soft 0.0
pair_coeff 42 147 soft 0.0
pair_coeff 43 145 soft 0.0
pair_coeff 43 146 soft 0.0
pair_coeff 43 147 soft 0.0
pair_coeff 43 148 soft 0.0
pair_coeff 43 149 soft 0.0
pair_coeff 43 150 soft 0.0
pair_coeff 44 147 soft 0.0
pair_coeff 44 150 soft 0.0
pair_coeff 45 147 soft 0.0
pair_coeff 45 150 soft 0.0
pair_coeff 46 179 soft 0.0
pair_coeff 47 178 soft 0.0
pair_coeff 47 179 soft 0.0
pair_coeff 48 173 soft 0.0
pair_coeff 48 174 soft 0.0
pair_coeff 48 179 soft 0.0
pair_coeff 49 179 soft 0.0
pair_coeff 49 181 soft 0.0
pair_coeff 49 182 soft 0.0
pair_coeff 50 181 soft 0.0
pair_coeff 50 182 soft 0.0
pair_coeff 50 183 soft 0.0
pair_coeff 51 151 soft 0.0
pair_coeff 51 179 soft 0.0
pair_coeff 51 181 soft 0.0
pair_coeff 51 182 soft 0.0
pair_coeff 52 150 soft 0.0
pair_coeff 52 151 soft 0.0
pair_coeff 52 167 soft 0.0
pair_coeff 52 177 soft 0.0
pair_coeff 52 178 soft 0.0
pair_coeff 52 179 soft 0.0
pair_coeff 52 180 soft 0.0
pair_coeff 52 181 soft 0.0
pair_coeff 52 182 soft 0.0
pair_coeff 53 150 soft 0.0
pair_coeff 53 151 soft 0.0
pair_coeff 54 171 soft 0.0
pair_coeff 55 169 soft 0.0
pair_coeff 56 168 soft 0.0
pair_coeff 56 169 soft 0.0
pair_coeff 56 170 soft 0.0
pair_coeff 56 171 soft 0.0
pair_coeff 56 172 soft 0.0
pair_coeff 57 169 soft 0.0
pair_coeff 57 170 soft 0.0
pair_coeff 57 171 soft 0.0
pair_coeff 58 142 soft 0.0
pair_coeff 58 168 soft 0.0
pair_coeff 58 169 soft 0.0
pair_coeff 58 170 soft 0.0
pair_coeff 58 171 soft 0.0
pair_coeff 59 142 soft 0.0
pair_coeff 59 170 soft 0.0
pair_coeff 60 123 soft 0.0
pair_coeff 61 120 soft 0.0
pair_coeff 61 121 soft 0.0
pair_coeff 61 122 soft 0.0
pair_coeff 61 123 soft 0.0
pair_coeff 61 195 soft 0.0
pair_coeff 62 123 soft 0.0
pair_coeff 63 123 soft 0.0
pair_coeff 64 123 soft 0.0
pair_coeff 64 124 soft 0.0
pair_coeff 65 136 soft 0.0
pair_coeff 65 191 soft 0.0
pair_coeff 65 194 soft 0.0
pair_coeff 66 134 soft 0.0
pair_coeff 66 135 soft 0.0
pair_coeff 66 136 soft 0.0
pair_coeff 66 191 soft 0.0
pair_coeff 67 135 soft 0.0
pair_coeff 68 191 soft 0.0
pair_coeff 69 190 soft 0.0
pair_coeff 69 191 soft 0.0
pair_coeff 69 192 soft 0.0
pair_coeff 70 190 soft 0.0
pair_coeff 70 191 soft 0.0
pair_coeff 70 193 soft 0.0
pair_coeff 71 193 soft 0.0
pair_coeff 79 135 soft 0.0
pair_coeff 80 140 soft 0.0
pair_coeff 81 139 soft 0.0
pair_coeff 81 140 soft 0.0
pair_coeff 81 141 soft 0.0
pair_coeff 82 137 soft 0.0
pair_coeff 82 138 soft 0.0
pair_coeff 82 139 soft 0.0
pair_coeff 83 131 soft 0.0
pair_coeff 84 131 soft 0.0
pair_coeff 85 130 soft 0.0
pair_coeff 85 131 soft 0.0
pair_coeff 86 185 soft 0.0
pair_coeff 87 185 soft 0.0
pair_coeff 87 186 soft 0.0
pair_coeff 87 187 soft 0.0
pair_coeff 87 188 soft 0.0
pair_coeff 87 189 soft 0.0
pair_coeff 87 190 soft 0.0
pair_coeff 88 135 soft 0.0
pair_coeff 88 184 soft 0.0
pair_coeff 88 185 soft 0.0
pair_coeff 88 186 soft 0.0
pair_coeff 89 184 soft 0.0
pair_coeff 89 185 soft 0.0
pair_coeff 90 131 soft 0.0
pair_coeff 90 132 soft 0.0
pair_coeff 90 134 soft 0.0
pair_coeff 90 135 soft 0.0
pair_coeff 90 136 soft 0.0
pair_coeff 90 184 soft 0.0
pair_coeff 91 132 soft 0.0
pair_coeff 91 134 soft 0.0
pair_coeff 91 135 soft 0.0
pair_coeff 92 132 soft 0.0
pair_coeff 92 133 soft 0.0
pair_coeff 92 134 soft 0.0
pair_coeff 92 135 soft 0.0
pair_coeff 93 132 soft 0.0
pair_coeff 93 133 soft 0.0
pair_coeff 93 134 soft 0.0
pair_coeff 93 135 soft 0.0
pair_coeff 94 133 soft 0.0
pair_coeff 94 134 soft 0.0
pair_coeff 95 177 soft 0.0
pair_coeff 95 178 soft 0.0
pair_coeff 96 175 soft 0.0
pair_coeff 96 176 soft 0.0
pair_coeff 96 177 soft 0.0
pair_coeff 96 178 soft 0.0
pair_coeff 97 176 soft 0.0
pair_coeff 97 177 soft 0.0
pair_coeff 97 178 soft 0.0
pair_coeff 98 176 soft 0.0
pair_coeff 99 153 soft 0.0
pair_coeff 99 154 soft 0.0
pair_coeff 99 177 soft 0.0
pair_coeff 100 150 soft 0.0
pair_coeff 100 151 soft 0.0
pair_coeff 100 152 soft 0.0
pair_coeff 100 153 soft 0.0
pair_coeff 100 154 soft 0.0
pair_coeff 101 154 soft 0.0
pair_coeff 101 155 soft 0.0
pair_coeff 102 150 soft 0.0
pair_coeff 103 147 soft 0.0
pair_coeff 104 143 soft 0.0
pair_coeff 105 142 soft 0.0
pair_coeff 105 143 soft 0.0
pair_coeff 108 160 soft 0.0
pair_coeff 108 161 soft 0.0
pair_coeff 108 162 soft 0.0
pair_coeff 109 158 soft 0.0
pair_coeff 109 159 soft 0.0
pair_coeff 109 160 soft 0.0
pair_coeff 109 161 soft 0.0
pair_coeff 109 162 soft 0.0
pair_coeff 110 158 soft 0.0
pair_coeff 110 159 soft 0.0
pair_coeff 110 160 soft 0.0
pair_coeff 110 161 soft 0.0
pair_coeff 110 162 soft 0.0
pair_coeff 110 163 soft 0.0
pair_coeff 111 162 soft 0.0
pair_coeff 112 162 soft 0.0
pair_coeff 113 160 soft 0.0
pair_coeff 113 161 soft 0.0
pair_coeff 115 160 soft 0.0
pair_coeff 116 157 soft 0.0
pair_coeff 116 160 soft 0.0
pair_coeff 117 156 soft 0.0
pair_coeff 117 157 soft 0.0
pair_coeff 117 160 soft 0.0
pair_coeff 118 157 soft 0.0
pair_coeff 125 164 soft 0.0
pair_coeff 125 165 soft 0.0
pair_coeff 125 166 soft 0.0
pair_coeff 126 164 soft 0.0
pair_coeff 127 164 soft 0.0
pair_coeff 127 165 soft 0.0

# wrote 215 soft override entries; skipped 0

