# Soft pair_coeff for all atom type pairs
# Format: pair_coeff type1 type2 soft value cutoff(A)  # label

pair_coeff 1 1 soft 2.000000 7.12719  # PO1-PO1
pair_coeff 1 2 soft 2.000000 7.12719  # PO1-PO2
pair_coeff 1 3 soft 2.000000 7.12719  # PO1-PO3
pair_coeff 1 4 soft 2.000000 7.12719  # PO1-SUG
pair_coeff 1 5 soft 2.000000 7.56359  # PO1-MG
pair_coeff 1 6 soft 2.000000 7.50493  # PO1-MET
pair_coeff 1 7 soft 2.000000 7.27508  # PO1-ARG
pair_coeff 1 8 soft 2.000000 7.40871  # PO1-GLU
pair_coeff 1 9 soft 2.000000 7.52720  # PO1-CYS
pair_coeff 1 10 soft 2.000000 7.44079  # PO1-ILE
pair_coeff 1 11 soft 2.000000 7.06215  # PO1-SER
pair_coeff 1 12 soft 2.000000 7.74726  # PO1-HIS
pair_coeff 1 13 soft 2.000000 7.51919  # PO1-VAL
pair_coeff 1 14 soft 2.000000 6.63541  # PO1-GLY
pair_coeff 1 15 soft 2.000000 7.08710  # PO1-GLN
pair_coeff 1 16 soft 2.000000 7.07641  # PO1-ALA
pair_coeff 1 17 soft 2.000000 7.41940  # PO1-ASN
pair_coeff 1 18 soft 2.000000 7.55126  # PO1-TRP
pair_coeff 1 19 soft 2.000000 7.43188  # PO1-LEU
pair_coeff 1 20 soft 2.000000 7.24746  # PO1-TYR
pair_coeff 1 21 soft 2.000000 7.16817  # PO1-PRO
pair_coeff 1 22 soft 2.000000 7.50048  # PO1-ASP
pair_coeff 1 23 soft 2.000000 7.59937  # PO1-LYS
pair_coeff 1 24 soft 2.000000 7.15926  # PO1-THR
pair_coeff 1 25 soft 2.000000 7.48622  # PO1-PHE
pair_coeff 1 26 soft 2.000000 7.50493  # PO1-MET
pair_coeff 1 27 soft 2.000000 7.27508  # PO1-ARG
pair_coeff 1 28 soft 2.000000 7.50048  # PO1-ASP
pair_coeff 1 29 soft 2.000000 7.40871  # PO1-GLU
pair_coeff 1 30 soft 2.000000 7.15926  # PO1-THR
pair_coeff 1 31 soft 2.000000 6.63541  # PO1-GLY
pair_coeff 1 32 soft 2.000000 7.07641  # PO1-ALA
pair_coeff 1 33 soft 2.000000 7.59937  # PO1-LYS
pair_coeff 1 34 soft 2.000000 7.74726  # PO1-HIS
pair_coeff 1 35 soft 2.000000 7.51919  # PO1-VAL
pair_coeff 1 36 soft 2.000000 7.15926  # PO1-THR
pair_coeff 1 37 soft 2.000000 7.51919  # PO1-VAL
pair_coeff 1 38 soft 2.000000 7.74726  # PO1-HIS
pair_coeff 1 39 soft 2.000000 7.59937  # PO1-LYS
pair_coeff 1 40 soft 2.000000 7.40871  # PO1-GLU
pair_coeff 1 41 soft 2.000000 7.50048  # PO1-ASP
pair_coeff 1 42 soft 2.000000 7.07641  # PO1-ALA
pair_coeff 1 43 soft 2.000000 7.07641  # PO1-ALA
pair_coeff 1 44 soft 2.000000 7.41940  # PO1-ASN
pair_coeff 1 45 soft 2.000000 7.41940  # PO1-ASN
pair_coeff 1 46 soft 2.000000 7.16817  # PO1-PRO
pair_coeff 1 47 soft 2.000000 7.08710  # PO1-GLN
pair_coeff 1 48 soft 2.000000 7.51919  # PO1-VAL
pair_coeff 1 49 soft 2.000000 7.06215  # PO1-SER
pair_coeff 1 50 soft 2.000000 7.15926  # PO1-THR
pair_coeff 1 51 soft 2.000000 7.07641  # PO1-ALA
pair_coeff 1 52 soft 2.000000 7.51919  # PO1-VAL
pair_coeff 1 53 soft 2.000000 7.51919  # PO1-VAL
pair_coeff 1 54 soft 2.000000 7.24746  # PO1-TYR
pair_coeff 1 55 soft 2.000000 7.40871  # PO1-GLU
pair_coeff 1 56 soft 2.000000 7.27508  # PO1-ARG
pair_coeff 1 57 soft 2.000000 7.16817  # PO1-PRO
pair_coeff 1 58 soft 2.000000 7.15926  # PO1-THR
pair_coeff 1 59 soft 2.000000 7.24746  # PO1-TYR
pair_coeff 1 60 soft 2.000000 7.51919  # PO1-VAL
pair_coeff 1 61 soft 2.000000 7.50048  # PO1-ASP
pair_coeff 1 62 soft 2.000000 7.43188  # PO1-LEU
pair_coeff 1 63 soft 2.000000 7.15926  # PO1-THR
pair_coeff 1 64 soft 2.000000 7.40871  # PO1-GLU
pair_coeff 1 65 soft 2.000000 7.15926  # PO1-THR
pair_coeff 1 66 soft 2.000000 7.41940  # PO1-ASN
pair_coeff 1 67 soft 2.000000 7.43188  # PO1-LEU
pair_coeff 1 68 soft 2.000000 7.51919  # PO1-VAL
pair_coeff 1 69 soft 2.000000 7.16817  # PO1-PRO
pair_coeff 1 70 soft 2.000000 7.24746  # PO1-TYR
pair_coeff 1 71 soft 2.000000 7.16817  # PO1-PRO
pair_coeff 1 72 soft 2.000000 7.07641  # PO1-ALA
pair_coeff 1 73 soft 2.000000 7.24746  # PO1-TYR
pair_coeff 1 74 soft 2.000000 7.74726  # PO1-HIS
pair_coeff 1 75 soft 2.000000 7.40871  # PO1-GLU
pair_coeff 1 76 soft 2.000000 7.08710  # PO1-GLN
pair_coeff 1 77 soft 2.000000 7.43188  # PO1-LEU
pair_coeff 1 78 soft 2.000000 7.06215  # PO1-SER
pair_coeff 1 79 soft 2.000000 7.07641  # PO1-ALA
pair_coeff 1 80 soft 2.000000 7.51919  # PO1-VAL
pair_coeff 1 81 soft 2.000000 7.16817  # PO1-PRO
pair_coeff 1 82 soft 2.000000 7.59937  # PO1-LYS
pair_coeff 1 83 soft 2.000000 7.41940  # PO1-ASN
pair_coeff 1 84 soft 2.000000 7.44079  # PO1-ILE
pair_coeff 1 85 soft 2.000000 7.07641  # PO1-ALA
pair_coeff 1 86 soft 2.000000 7.50048  # PO1-ASP
pair_coeff 1 87 soft 2.000000 7.55126  # PO1-TRP
pair_coeff 1 88 soft 2.000000 7.52720  # PO1-CYS
pair_coeff 1 89 soft 2.000000 7.16817  # PO1-PRO
pair_coeff 1 90 soft 2.000000 7.15926  # PO1-THR
pair_coeff 1 91 soft 2.000000 6.63541  # PO1-GLY
pair_coeff 1 92 soft 2.000000 7.48622  # PO1-PHE
pair_coeff 1 93 soft 2.000000 7.59937  # PO1-LYS
pair_coeff 1 94 soft 2.000000 7.51919  # PO1-VAL
pair_coeff 1 95 soft 2.000000 7.59937  # PO1-LYS
pair_coeff 1 96 soft 2.000000 7.43188  # PO1-LEU
pair_coeff 1 97 soft 2.000000 7.50493  # PO1-MET
pair_coeff 1 98 soft 2.000000 7.59937  # PO1-LYS
pair_coeff 1 99 soft 2.000000 7.07641  # PO1-ALA
pair_coeff 1 100 soft 2.000000 7.48622  # PO1-PHE
pair_coeff 1 101 soft 2.000000 7.74726  # PO1-HIS
pair_coeff 1 102 soft 2.000000 7.55126  # PO1-TRP
pair_coeff 1 103 soft 2.000000 7.12719  # PO1-BAS
pair_coeff 1 104 soft 2.000000 7.12719  # PO1-PO3
pair_coeff 1 105 soft 2.000000 7.12719  # PO1-SUG
pair_coeff 1 106 soft 2.000000 7.50493  # PO1-MET
pair_coeff 1 107 soft 2.000000 7.27508  # PO1-ARG
pair_coeff 1 108 soft 2.000000 7.40871  # PO1-GLU
pair_coeff 1 109 soft 2.000000 7.07641  # PO1-ALA
pair_coeff 1 110 soft 2.000000 7.07641  # PO1-ALA
pair_coeff 1 111 soft 2.000000 6.63541  # PO1-GLY
pair_coeff 1 112 soft 2.000000 7.41940  # PO1-ASN
pair_coeff 1 113 soft 2.000000 7.51919  # PO1-VAL
pair_coeff 1 114 soft 2.000000 6.63541  # PO1-GLY
pair_coeff 1 115 soft 2.000000 7.48622  # PO1-PHE
pair_coeff 1 116 soft 2.000000 7.27508  # PO1-ARG
pair_coeff 1 117 soft 2.000000 7.16817  # PO1-PRO
pair_coeff 1 118 soft 2.000000 7.50048  # PO1-ASP
pair_coeff 1 119 soft 2.000000 7.08710  # PO1-GLN
pair_coeff 1 120 soft 2.000000 7.06215  # PO1-SER
pair_coeff 1 121 soft 2.000000 6.63541  # PO1-GLY
pair_coeff 1 122 soft 2.000000 7.07641  # PO1-ALA
pair_coeff 1 123 soft 2.000000 6.63541  # PO1-GLY
pair_coeff 1 124 soft 2.000000 7.41940  # PO1-ASN
pair_coeff 1 125 soft 2.000000 7.59937  # PO1-LYS
pair_coeff 1 126 soft 2.000000 7.40871  # PO1-GLU
pair_coeff 1 127 soft 2.000000 7.06215  # PO1-SER
pair_coeff 1 128 soft 2.000000 7.52720  # PO1-CYS
pair_coeff 1 129 soft 2.000000 7.08710  # PO1-GLN
pair_coeff 1 130 soft 2.000000 7.59937  # PO1-LYS
pair_coeff 1 131 soft 2.000000 7.51919  # PO1-VAL
pair_coeff 1 132 soft 2.000000 7.06215  # PO1-SER
pair_coeff 1 133 soft 2.000000 7.50048  # PO1-ASP
pair_coeff 1 134 soft 2.000000 7.15926  # PO1-THR
pair_coeff 1 135 soft 2.000000 7.51919  # PO1-VAL
pair_coeff 1 136 soft 2.000000 7.51919  # PO1-VAL
pair_coeff 1 137 soft 2.000000 7.24746  # PO1-TYR
pair_coeff 1 138 soft 2.000000 7.15926  # PO1-THR
pair_coeff 1 139 soft 2.000000 7.16817  # PO1-PRO
pair_coeff 1 140 soft 2.000000 7.15926  # PO1-THR
pair_coeff 1 141 soft 2.000000 7.24746  # PO1-TYR
pair_coeff 1 142 soft 2.000000 7.08710  # PO1-GLN
pair_coeff 1 143 soft 2.000000 7.43188  # PO1-LEU
pair_coeff 1 144 soft 2.000000 7.41940  # PO1-ASN
pair_coeff 1 145 soft 2.000000 7.50048  # PO1-ASP
pair_coeff 1 146 soft 2.000000 7.27508  # PO1-ARG
pair_coeff 1 147 soft 2.000000 7.59937  # PO1-LYS
pair_coeff 1 148 soft 2.000000 7.43188  # PO1-LEU
pair_coeff 1 149 soft 2.000000 7.07641  # PO1-ALA
pair_coeff 1 150 soft 2.000000 7.51919  # PO1-VAL
pair_coeff 1 151 soft 2.000000 7.41940  # PO1-ASN
pair_coeff 1 152 soft 2.000000 7.51919  # PO1-VAL
pair_coeff 1 153 soft 2.000000 7.16817  # PO1-PRO
pair_coeff 1 154 soft 2.000000 7.48622  # PO1-PHE
pair_coeff 1 155 soft 2.000000 7.16817  # PO1-PRO
pair_coeff 1 156 soft 2.000000 6.63541  # PO1-GLY
pair_coeff 1 157 soft 2.000000 7.06215  # PO1-SER
pair_coeff 1 158 soft 2.000000 7.08710  # PO1-GLN
pair_coeff 1 159 soft 2.000000 7.08710  # PO1-GLN
pair_coeff 1 160 soft 2.000000 7.24746  # PO1-TYR
pair_coeff 1 161 soft 2.000000 7.27508  # PO1-ARG
pair_coeff 1 162 soft 2.000000 7.07641  # PO1-ALA
pair_coeff 1 163 soft 2.000000 7.43188  # PO1-LEU
pair_coeff 1 164 soft 2.000000 7.16817  # PO1-PRO
pair_coeff 1 165 soft 2.000000 7.40871  # PO1-GLU
pair_coeff 1 166 soft 2.000000 7.08710  # PO1-GLN
pair_coeff 1 167 soft 2.000000 7.15926  # PO1-THR
pair_coeff 1 168 soft 2.000000 7.50493  # PO1-MET
pair_coeff 1 169 soft 2.000000 7.06215  # PO1-SER
pair_coeff 1 170 soft 2.000000 7.50493  # PO1-MET
pair_coeff 1 171 soft 2.000000 7.59937  # PO1-LYS
pair_coeff 1 172 soft 2.000000 7.40871  # PO1-GLU
pair_coeff 1 173 soft 2.000000 7.50048  # PO1-ASP
pair_coeff 1 174 soft 2.000000 7.43188  # PO1-LEU
pair_coeff 1 175 soft 2.000000 7.40871  # PO1-GLU
pair_coeff 1 176 soft 2.000000 7.55126  # PO1-TRP
pair_coeff 1 177 soft 2.000000 7.44079  # PO1-ILE
pair_coeff 1 178 soft 2.000000 7.16817  # PO1-PRO
pair_coeff 1 179 soft 2.000000 7.41940  # PO1-ASN
pair_coeff 1 180 soft 2.000000 7.41940  # PO1-ASN
pair_coeff 1 181 soft 2.000000 7.51919  # PO1-VAL
pair_coeff 1 182 soft 2.000000 7.59937  # PO1-LYS
pair_coeff 1 183 soft 2.000000 7.15926  # PO1-THR
pair_coeff 1 184 soft 2.000000 7.08710  # PO1-GLN
pair_coeff 1 185 soft 2.000000 7.07641  # PO1-ALA
pair_coeff 1 186 soft 2.000000 7.50493  # PO1-MET
pair_coeff 1 187 soft 2.000000 7.48622  # PO1-PHE
pair_coeff 1 188 soft 2.000000 7.27508  # PO1-ARG
pair_coeff 1 189 soft 2.000000 7.27508  # PO1-ARG
pair_coeff 1 190 soft 2.000000 7.07641  # PO1-ALA
pair_coeff 1 191 soft 2.000000 7.48622  # PO1-PHE
pair_coeff 1 192 soft 2.000000 7.43188  # PO1-LEU
pair_coeff 1 193 soft 2.000000 7.74726  # PO1-HIS
pair_coeff 1 194 soft 2.000000 7.55126  # PO1-TRP
pair_coeff 1 195 soft 2.000000 7.12719  # PO1-BAS
pair_coeff 2 2 soft 2.000000 7.12719  # PO2-PO2
pair_coeff 2 3 soft 2.000000 7.12719  # PO2-PO3
pair_coeff 2 4 soft 2.000000 7.12719  # PO2-SUG
pair_coeff 2 5 soft 2.000000 7.56359  # PO2-MG
pair_coeff 2 6 soft 2.000000 7.50493  # PO2-MET
pair_coeff 2 7 soft 2.000000 7.27508  # PO2-ARG
pair_coeff 2 8 soft 2.000000 7.40871  # PO2-GLU
pair_coeff 2 9 soft 2.000000 7.52720  # PO2-CYS
pair_coeff 2 10 soft 2.000000 7.44079  # PO2-ILE
pair_coeff 2 11 soft 2.000000 7.06215  # PO2-SER
pair_coeff 2 12 soft 2.000000 7.74726  # PO2-HIS
pair_coeff 2 13 soft 2.000000 7.51919  # PO2-VAL
pair_coeff 2 14 soft 2.000000 6.63541  # PO2-GLY
pair_coeff 2 15 soft 2.000000 7.08710  # PO2-GLN
pair_coeff 2 16 soft 2.000000 7.07641  # PO2-ALA
pair_coeff 2 17 soft 2.000000 7.41940  # PO2-ASN
pair_coeff 2 18 soft 2.000000 7.55126  # PO2-TRP
pair_coeff 2 19 soft 2.000000 7.43188  # PO2-LEU
pair_coeff 2 20 soft 2.000000 7.24746  # PO2-TYR
pair_coeff 2 21 soft 2.000000 7.16817  # PO2-PRO
pair_coeff 2 22 soft 2.000000 7.50048  # PO2-ASP
pair_coeff 2 23 soft 2.000000 7.59937  # PO2-LYS
pair_coeff 2 24 soft 2.000000 7.15926  # PO2-THR
pair_coeff 2 25 soft 2.000000 7.48622  # PO2-PHE
pair_coeff 2 26 soft 2.000000 7.50493  # PO2-MET
pair_coeff 2 27 soft 2.000000 7.27508  # PO2-ARG
pair_coeff 2 28 soft 2.000000 7.50048  # PO2-ASP
pair_coeff 2 29 soft 2.000000 7.40871  # PO2-GLU
pair_coeff 2 30 soft 2.000000 7.15926  # PO2-THR
pair_coeff 2 31 soft 2.000000 6.63541  # PO2-GLY
pair_coeff 2 32 soft 2.000000 7.07641  # PO2-ALA
pair_coeff 2 33 soft 2.000000 7.59937  # PO2-LYS
pair_coeff 2 34 soft 2.000000 7.74726  # PO2-HIS
pair_coeff 2 35 soft 2.000000 7.51919  # PO2-VAL
pair_coeff 2 36 soft 2.000000 7.15926  # PO2-THR
pair_coeff 2 37 soft 2.000000 7.51919  # PO2-VAL
pair_coeff 2 38 soft 2.000000 7.74726  # PO2-HIS
pair_coeff 2 39 soft 2.000000 7.59937  # PO2-LYS
pair_coeff 2 40 soft 2.000000 7.40871  # PO2-GLU
pair_coeff 2 41 soft 2.000000 7.50048  # PO2-ASP
pair_coeff 2 42 soft 2.000000 7.07641  # PO2-ALA
pair_coeff 2 43 soft 2.000000 7.07641  # PO2-ALA
pair_coeff 2 44 soft 2.000000 7.41940  # PO2-ASN
pair_coeff 2 45 soft 2.000000 7.41940  # PO2-ASN
pair_coeff 2 46 soft 2.000000 7.16817  # PO2-PRO
pair_coeff 2 47 soft 2.000000 7.08710  # PO2-GLN
pair_coeff 2 48 soft 2.000000 7.51919  # PO2-VAL
pair_coeff 2 49 soft 2.000000 7.06215  # PO2-SER
pair_coeff 2 50 soft 2.000000 7.15926  # PO2-THR
pair_coeff 2 51 soft 2.000000 7.07641  # PO2-ALA
pair_coeff 2 52 soft 2.000000 7.51919  # PO2-VAL
pair_coeff 2 53 soft 2.000000 7.51919  # PO2-VAL
pair_coeff 2 54 soft 2.000000 7.24746  # PO2-TYR
pair_coeff 2 55 soft 2.000000 7.40871  # PO2-GLU
pair_coeff 2 56 soft 2.000000 7.27508  # PO2-ARG
pair_coeff 2 57 soft 2.000000 7.16817  # PO2-PRO
pair_coeff 2 58 soft 2.000000 7.15926  # PO2-THR
pair_coeff 2 59 soft 2.000000 7.24746  # PO2-TYR
pair_coeff 2 60 soft 2.000000 7.51919  # PO2-VAL
pair_coeff 2 61 soft 2.000000 7.50048  # PO2-ASP
pair_coeff 2 62 soft 2.000000 7.43188  # PO2-LEU
pair_coeff 2 63 soft 2.000000 7.15926  # PO2-THR
pair_coeff 2 64 soft 2.000000 7.40871  # PO2-GLU
pair_coeff 2 65 soft 2.000000 7.15926  # PO2-THR
pair_coeff 2 66 soft 2.000000 7.41940  # PO2-ASN
pair_coeff 2 67 soft 2.000000 7.43188  # PO2-LEU
pair_coeff 2 68 soft 2.000000 7.51919  # PO2-VAL
pair_coeff 2 69 soft 2.000000 7.16817  # PO2-PRO
pair_coeff 2 70 soft 2.000000 7.24746  # PO2-TYR
pair_coeff 2 71 soft 2.000000 7.16817  # PO2-PRO
pair_coeff 2 72 soft 2.000000 7.07641  # PO2-ALA
pair_coeff 2 73 soft 2.000000 7.24746  # PO2-TYR
pair_coeff 2 74 soft 2.000000 7.74726  # PO2-HIS
pair_coeff 2 75 soft 2.000000 7.40871  # PO2-GLU
pair_coeff 2 76 soft 2.000000 7.08710  # PO2-GLN
pair_coeff 2 77 soft 2.000000 7.43188  # PO2-LEU
pair_coeff 2 78 soft 2.000000 7.06215  # PO2-SER
pair_coeff 2 79 soft 2.000000 7.07641  # PO2-ALA
pair_coeff 2 80 soft 2.000000 7.51919  # PO2-VAL
pair_coeff 2 81 soft 2.000000 7.16817  # PO2-PRO
pair_coeff 2 82 soft 2.000000 7.59937  # PO2-LYS
pair_coeff 2 83 soft 2.000000 7.41940  # PO2-ASN
pair_coeff 2 84 soft 2.000000 7.44079  # PO2-ILE
pair_coeff 2 85 soft 2.000000 7.07641  # PO2-ALA
pair_coeff 2 86 soft 2.000000 7.50048  # PO2-ASP
pair_coeff 2 87 soft 2.000000 7.55126  # PO2-TRP
pair_coeff 2 88 soft 2.000000 7.52720  # PO2-CYS
pair_coeff 2 89 soft 2.000000 7.16817  # PO2-PRO
pair_coeff 2 90 soft 2.000000 7.15926  # PO2-THR
pair_coeff 2 91 soft 2.000000 6.63541  # PO2-GLY
pair_coeff 2 92 soft 2.000000 7.48622  # PO2-PHE
pair_coeff 2 93 soft 2.000000 7.59937  # PO2-LYS
pair_coeff 2 94 soft 2.000000 7.51919  # PO2-VAL
pair_coeff 2 95 soft 2.000000 7.59937  # PO2-LYS
pair_coeff 2 96 soft 2.000000 7.43188  # PO2-LEU
pair_coeff 2 97 soft 2.000000 7.50493  # PO2-MET
pair_coeff 2 98 soft 2.000000 7.59937  # PO2-LYS
pair_coeff 2 99 soft 2.000000 7.07641  # PO2-ALA
pair_coeff 2 100 soft 2.000000 7.48622  # PO2-PHE
pair_coeff 2 101 soft 2.000000 7.74726  # PO2-HIS
pair_coeff 2 102 soft 2.000000 7.55126  # PO2-TRP
pair_coeff 2 103 soft 2.000000 7.12719  # PO2-BAS
pair_coeff 2 104 soft 2.000000 7.12719  # PO2-PO3
pair_coeff 2 105 soft 2.000000 7.12719  # PO2-SUG
pair_coeff 2 106 soft 2.000000 7.50493  # PO2-MET
pair_coeff 2 107 soft 2.000000 7.27508  # PO2-ARG
pair_coeff 2 108 soft 2.000000 7.40871  # PO2-GLU
pair_coeff 2 109 soft 2.000000 7.07641  # PO2-ALA
pair_coeff 2 110 soft 2.000000 7.07641  # PO2-ALA
pair_coeff 2 111 soft 2.000000 6.63541  # PO2-GLY
pair_coeff 2 112 soft 2.000000 7.41940  # PO2-ASN
pair_coeff 2 113 soft 2.000000 7.51919  # PO2-VAL
pair_coeff 2 114 soft 2.000000 6.63541  # PO2-GLY
pair_coeff 2 115 soft 2.000000 7.48622  # PO2-PHE
pair_coeff 2 116 soft 2.000000 7.27508  # PO2-ARG
pair_coeff 2 117 soft 2.000000 7.16817  # PO2-PRO
pair_coeff 2 118 soft 2.000000 7.50048  # PO2-ASP
pair_coeff 2 119 soft 2.000000 7.08710  # PO2-GLN
pair_coeff 2 120 soft 2.000000 7.06215  # PO2-SER
pair_coeff 2 121 soft 2.000000 6.63541  # PO2-GLY
pair_coeff 2 122 soft 2.000000 7.07641  # PO2-ALA
pair_coeff 2 123 soft 2.000000 6.63541  # PO2-GLY
pair_coeff 2 124 soft 2.000000 7.41940  # PO2-ASN
pair_coeff 2 125 soft 2.000000 7.59937  # PO2-LYS
pair_coeff 2 126 soft 2.000000 7.40871  # PO2-GLU
pair_coeff 2 127 soft 2.000000 7.06215  # PO2-SER
pair_coeff 2 128 soft 2.000000 7.52720  # PO2-CYS
pair_coeff 2 129 soft 2.000000 7.08710  # PO2-GLN
pair_coeff 2 130 soft 2.000000 7.59937  # PO2-LYS
pair_coeff 2 131 soft 2.000000 7.51919  # PO2-VAL
pair_coeff 2 132 soft 2.000000 7.06215  # PO2-SER
pair_coeff 2 133 soft 2.000000 7.50048  # PO2-ASP
pair_coeff 2 134 soft 2.000000 7.15926  # PO2-THR
pair_coeff 2 135 soft 2.000000 7.51919  # PO2-VAL
pair_coeff 2 136 soft 2.000000 7.51919  # PO2-VAL
pair_coeff 2 137 soft 2.000000 7.24746  # PO2-TYR
pair_coeff 2 138 soft 2.000000 7.15926  # PO2-THR
pair_coeff 2 139 soft 2.000000 7.16817  # PO2-PRO
pair_coeff 2 140 soft 2.000000 7.15926  # PO2-THR
pair_coeff 2 141 soft 2.000000 7.24746  # PO2-TYR
pair_coeff 2 142 soft 2.000000 7.08710  # PO2-GLN
pair_coeff 2 143 soft 2.000000 7.43188  # PO2-LEU
pair_coeff 2 144 soft 2.000000 7.41940  # PO2-ASN
pair_coeff 2 145 soft 2.000000 7.50048  # PO2-ASP
pair_coeff 2 146 soft 2.000000 7.27508  # PO2-ARG
pair_coeff 2 147 soft 2.000000 7.59937  # PO2-LYS
pair_coeff 2 148 soft 2.000000 7.43188  # PO2-LEU
pair_coeff 2 149 soft 2.000000 7.07641  # PO2-ALA
pair_coeff 2 150 soft 2.000000 7.51919  # PO2-VAL
pair_coeff 2 151 soft 2.000000 7.41940  # PO2-ASN
pair_coeff 2 152 soft 2.000000 7.51919  # PO2-VAL
pair_coeff 2 153 soft 2.000000 7.16817  # PO2-PRO
pair_coeff 2 154 soft 2.000000 7.48622  # PO2-PHE
pair_coeff 2 155 soft 2.000000 7.16817  # PO2-PRO
pair_coeff 2 156 soft 2.000000 6.63541  # PO2-GLY
pair_coeff 2 157 soft 2.000000 7.06215  # PO2-SER
pair_coeff 2 158 soft 2.000000 7.08710  # PO2-GLN
pair_coeff 2 159 soft 2.000000 7.08710  # PO2-GLN
pair_coeff 2 160 soft 2.000000 7.24746  # PO2-TYR
pair_coeff 2 161 soft 2.000000 7.27508  # PO2-ARG
pair_coeff 2 162 soft 2.000000 7.07641  # PO2-ALA
pair_coeff 2 163 soft 2.000000 7.43188  # PO2-LEU
pair_coeff 2 164 soft 2.000000 7.16817  # PO2-PRO
pair_coeff 2 165 soft 2.000000 7.40871  # PO2-GLU
pair_coeff 2 166 soft 2.000000 7.08710  # PO2-GLN
pair_coeff 2 167 soft 2.000000 7.15926  # PO2-THR
pair_coeff 2 168 soft 2.000000 7.50493  # PO2-MET
pair_coeff 2 169 soft 2.000000 7.06215  # PO2-SER
pair_coeff 2 170 soft 2.000000 7.50493  # PO2-MET
pair_coeff 2 171 soft 2.000000 7.59937  # PO2-LYS
pair_coeff 2 172 soft 2.000000 7.40871  # PO2-GLU
pair_coeff 2 173 soft 2.000000 7.50048  # PO2-ASP
pair_coeff 2 174 soft 2.000000 7.43188  # PO2-LEU
pair_coeff 2 175 soft 2.000000 7.40871  # PO2-GLU
pair_coeff 2 176 soft 2.000000 7.55126  # PO2-TRP
pair_coeff 2 177 soft 2.000000 7.44079  # PO2-ILE
pair_coeff 2 178 soft 2.000000 7.16817  # PO2-PRO
pair_coeff 2 179 soft 2.000000 7.41940  # PO2-ASN
pair_coeff 2 180 soft 2.000000 7.41940  # PO2-ASN
pair_coeff 2 181 soft 2.000000 7.51919  # PO2-VAL
pair_coeff 2 182 soft 2.000000 7.59937  # PO2-LYS
pair_coeff 2 183 soft 2.000000 7.15926  # PO2-THR
pair_coeff 2 184 soft 2.000000 7.08710  # PO2-GLN
pair_coeff 2 185 soft 2.000000 7.07641  # PO2-ALA
pair_coeff 2 186 soft 2.000000 7.50493  # PO2-MET
pair_coeff 2 187 soft 2.000000 7.48622  # PO2-PHE
pair_coeff 2 188 soft 2.000000 7.27508  # PO2-ARG
pair_coeff 2 189 soft 2.000000 7.27508  # PO2-ARG
pair_coeff 2 190 soft 2.000000 7.07641  # PO2-ALA
pair_coeff 2 191 soft 2.000000 7.48622  # PO2-PHE
pair_coeff 2 192 soft 2.000000 7.43188  # PO2-LEU
pair_coeff 2 193 soft 2.000000 7.74726  # PO2-HIS
pair_coeff 2 194 soft 2.000000 7.55126  # PO2-TRP
pair_coeff 2 195 soft 2.000000 7.12719  # PO2-BAS
pair_coeff 3 3 soft 2.000000 7.12719  # PO3-PO3
pair_coeff 3 4 soft 2.000000 7.12719  # PO3-SUG
pair_coeff 3 5 soft 2.000000 7.56359  # PO3-MG
pair_coeff 3 6 soft 2.000000 7.50493  # PO3-MET
pair_coeff 3 7 soft 2.000000 7.27508  # PO3-ARG
pair_coeff 3 8 soft 2.000000 7.40871  # PO3-GLU
pair_coeff 3 9 soft 2.000000 7.52720  # PO3-CYS
pair_coeff 3 10 soft 2.000000 7.44079  # PO3-ILE
pair_coeff 3 11 soft 2.000000 7.06215  # PO3-SER
pair_coeff 3 12 soft 2.000000 7.74726  # PO3-HIS
pair_coeff 3 13 soft 2.000000 7.51919  # PO3-VAL
pair_coeff 3 14 soft 2.000000 6.63541  # PO3-GLY
pair_coeff 3 15 soft 2.000000 7.08710  # PO3-GLN
pair_coeff 3 16 soft 2.000000 7.07641  # PO3-ALA
pair_coeff 3 17 soft 2.000000 7.41940  # PO3-ASN
pair_coeff 3 18 soft 2.000000 7.55126  # PO3-TRP
pair_coeff 3 19 soft 2.000000 7.43188  # PO3-LEU
pair_coeff 3 20 soft 2.000000 7.24746  # PO3-TYR
pair_coeff 3 21 soft 2.000000 7.16817  # PO3-PRO
pair_coeff 3 22 soft 2.000000 7.50048  # PO3-ASP
pair_coeff 3 23 soft 2.000000 7.59937  # PO3-LYS
pair_coeff 3 24 soft 2.000000 7.15926  # PO3-THR
pair_coeff 3 25 soft 2.000000 7.48622  # PO3-PHE
pair_coeff 3 26 soft 2.000000 7.50493  # PO3-MET
pair_coeff 3 27 soft 2.000000 7.27508  # PO3-ARG
pair_coeff 3 28 soft 2.000000 7.50048  # PO3-ASP
pair_coeff 3 29 soft 2.000000 7.40871  # PO3-GLU
pair_coeff 3 30 soft 2.000000 7.15926  # PO3-THR
pair_coeff 3 31 soft 2.000000 6.63541  # PO3-GLY
pair_coeff 3 32 soft 2.000000 7.07641  # PO3-ALA
pair_coeff 3 33 soft 2.000000 7.59937  # PO3-LYS
pair_coeff 3 34 soft 2.000000 7.74726  # PO3-HIS
pair_coeff 3 35 soft 2.000000 7.51919  # PO3-VAL
pair_coeff 3 36 soft 2.000000 7.15926  # PO3-THR
pair_coeff 3 37 soft 2.000000 7.51919  # PO3-VAL
pair_coeff 3 38 soft 2.000000 7.74726  # PO3-HIS
pair_coeff 3 39 soft 2.000000 7.59937  # PO3-LYS
pair_coeff 3 40 soft 2.000000 7.40871  # PO3-GLU
pair_coeff 3 41 soft 2.000000 7.50048  # PO3-ASP
pair_coeff 3 42 soft 2.000000 7.07641  # PO3-ALA
pair_coeff 3 43 soft 2.000000 7.07641  # PO3-ALA
pair_coeff 3 44 soft 2.000000 7.41940  # PO3-ASN
pair_coeff 3 45 soft 2.000000 7.41940  # PO3-ASN
pair_coeff 3 46 soft 2.000000 7.16817  # PO3-PRO
pair_coeff 3 47 soft 2.000000 7.08710  # PO3-GLN
pair_coeff 3 48 soft 2.000000 7.51919  # PO3-VAL
pair_coeff 3 49 soft 2.000000 7.06215  # PO3-SER
pair_coeff 3 50 soft 2.000000 7.15926  # PO3-THR
pair_coeff 3 51 soft 2.000000 7.07641  # PO3-ALA
pair_coeff 3 52 soft 2.000000 7.51919  # PO3-VAL
pair_coeff 3 53 soft 2.000000 7.51919  # PO3-VAL
pair_coeff 3 54 soft 2.000000 7.24746  # PO3-TYR
pair_coeff 3 55 soft 2.000000 7.40871  # PO3-GLU
pair_coeff 3 56 soft 2.000000 7.27508  # PO3-ARG
pair_coeff 3 57 soft 2.000000 7.16817  # PO3-PRO
pair_coeff 3 58 soft 2.000000 7.15926  # PO3-THR
pair_coeff 3 59 soft 2.000000 7.24746  # PO3-TYR
pair_coeff 3 60 soft 2.000000 7.51919  # PO3-VAL
pair_coeff 3 61 soft 2.000000 7.50048  # PO3-ASP
pair_coeff 3 62 soft 2.000000 7.43188  # PO3-LEU
pair_coeff 3 63 soft 2.000000 7.15926  # PO3-THR
pair_coeff 3 64 soft 2.000000 7.40871  # PO3-GLU
pair_coeff 3 65 soft 2.000000 7.15926  # PO3-THR
pair_coeff 3 66 soft 2.000000 7.41940  # PO3-ASN
pair_coeff 3 67 soft 2.000000 7.43188  # PO3-LEU
pair_coeff 3 68 soft 2.000000 7.51919  # PO3-VAL
pair_coeff 3 69 soft 2.000000 7.16817  # PO3-PRO
pair_coeff 3 70 soft 2.000000 7.24746  # PO3-TYR
pair_coeff 3 71 soft 2.000000 7.16817  # PO3-PRO
pair_coeff 3 72 soft 2.000000 7.07641  # PO3-ALA
pair_coeff 3 73 soft 2.000000 7.24746  # PO3-TYR
pair_coeff 3 74 soft 2.000000 7.74726  # PO3-HIS
pair_coeff 3 75 soft 2.000000 7.40871  # PO3-GLU
pair_coeff 3 76 soft 2.000000 7.08710  # PO3-GLN
pair_coeff 3 77 soft 2.000000 7.43188  # PO3-LEU
pair_coeff 3 78 soft 2.000000 7.06215  # PO3-SER
pair_coeff 3 79 soft 2.000000 7.07641  # PO3-ALA
pair_coeff 3 80 soft 2.000000 7.51919  # PO3-VAL
pair_coeff 3 81 soft 2.000000 7.16817  # PO3-PRO
pair_coeff 3 82 soft 2.000000 7.59937  # PO3-LYS
pair_coeff 3 83 soft 2.000000 7.41940  # PO3-ASN
pair_coeff 3 84 soft 2.000000 7.44079  # PO3-ILE
pair_coeff 3 85 soft 2.000000 7.07641  # PO3-ALA
pair_coeff 3 86 soft 2.000000 7.50048  # PO3-ASP
pair_coeff 3 87 soft 2.000000 7.55126  # PO3-TRP
pair_coeff 3 88 soft 2.000000 7.52720  # PO3-CYS
pair_coeff 3 89 soft 2.000000 7.16817  # PO3-PRO
pair_coeff 3 90 soft 2.000000 7.15926  # PO3-THR
pair_coeff 3 91 soft 2.000000 6.63541  # PO3-GLY
pair_coeff 3 92 soft 2.000000 7.48622  # PO3-PHE
pair_coeff 3 93 soft 2.000000 7.59937  # PO3-LYS
pair_coeff 3 94 soft 2.000000 7.51919  # PO3-VAL
pair_coeff 3 95 soft 2.000000 7.59937  # PO3-LYS
pair_coeff 3 96 soft 2.000000 7.43188  # PO3-LEU
pair_coeff 3 97 soft 2.000000 7.50493  # PO3-MET
pair_coeff 3 98 soft 2.000000 7.59937  # PO3-LYS
pair_coeff 3 99 soft 2.000000 7.07641  # PO3-ALA
pair_coeff 3 100 soft 2.000000 7.48622  # PO3-PHE
pair_coeff 3 101 soft 2.000000 7.74726  # PO3-HIS
pair_coeff 3 102 soft 2.000000 7.55126  # PO3-TRP
pair_coeff 3 103 soft 2.000000 7.12719  # PO3-BAS
pair_coeff 3 104 soft 2.000000 7.12719  # PO3-PO3
pair_coeff 3 105 soft 2.000000 7.12719  # PO3-SUG
pair_coeff 3 106 soft 2.000000 7.50493  # PO3-MET
pair_coeff 3 107 soft 2.000000 7.27508  # PO3-ARG
pair_coeff 3 108 soft 2.000000 7.40871  # PO3-GLU
pair_coeff 3 109 soft 2.000000 7.07641  # PO3-ALA
pair_coeff 3 110 soft 2.000000 7.07641  # PO3-ALA
pair_coeff 3 111 soft 2.000000 6.63541  # PO3-GLY
pair_coeff 3 112 soft 2.000000 7.41940  # PO3-ASN
pair_coeff 3 113 soft 2.000000 7.51919  # PO3-VAL
pair_coeff 3 114 soft 2.000000 6.63541  # PO3-GLY
pair_coeff 3 115 soft 2.000000 7.48622  # PO3-PHE
pair_coeff 3 116 soft 2.000000 7.27508  # PO3-ARG
pair_coeff 3 117 soft 2.000000 7.16817  # PO3-PRO
pair_coeff 3 118 soft 2.000000 7.50048  # PO3-ASP
pair_coeff 3 119 soft 2.000000 7.08710  # PO3-GLN
pair_coeff 3 120 soft 2.000000 7.06215  # PO3-SER
pair_coeff 3 121 soft 2.000000 6.63541  # PO3-GLY
pair_coeff 3 122 soft 2.000000 7.07641  # PO3-ALA
pair_coeff 3 123 soft 2.000000 6.63541  # PO3-GLY
pair_coeff 3 124 soft 2.000000 7.41940  # PO3-ASN
pair_coeff 3 125 soft 2.000000 7.59937  # PO3-LYS
pair_coeff 3 126 soft 2.000000 7.40871  # PO3-GLU
pair_coeff 3 127 soft 2.000000 7.06215  # PO3-SER
pair_coeff 3 128 soft 2.000000 7.52720  # PO3-CYS
pair_coeff 3 129 soft 2.000000 7.08710  # PO3-GLN
pair_coeff 3 130 soft 2.000000 7.59937  # PO3-LYS
pair_coeff 3 131 soft 2.000000 7.51919  # PO3-VAL
pair_coeff 3 132 soft 2.000000 7.06215  # PO3-SER
pair_coeff 3 133 soft 2.000000 7.50048  # PO3-ASP
pair_coeff 3 134 soft 2.000000 7.15926  # PO3-THR
pair_coeff 3 135 soft 2.000000 7.51919  # PO3-VAL
pair_coeff 3 136 soft 2.000000 7.51919  # PO3-VAL
pair_coeff 3 137 soft 2.000000 7.24746  # PO3-TYR
pair_coeff 3 138 soft 2.000000 7.15926  # PO3-THR
pair_coeff 3 139 soft 2.000000 7.16817  # PO3-PRO
pair_coeff 3 140 soft 2.000000 7.15926  # PO3-THR
pair_coeff 3 141 soft 2.000000 7.24746  # PO3-TYR
pair_coeff 3 142 soft 2.000000 7.08710  # PO3-GLN
pair_coeff 3 143 soft 2.000000 7.43188  # PO3-LEU
pair_coeff 3 144 soft 2.000000 7.41940  # PO3-ASN
pair_coeff 3 145 soft 2.000000 7.50048  # PO3-ASP
pair_coeff 3 146 soft 2.000000 7.27508  # PO3-ARG
pair_coeff 3 147 soft 2.000000 7.59937  # PO3-LYS
pair_coeff 3 148 soft 2.000000 7.43188  # PO3-LEU
pair_coeff 3 149 soft 2.000000 7.07641  # PO3-ALA
pair_coeff 3 150 soft 2.000000 7.51919  # PO3-VAL
pair_coeff 3 151 soft 2.000000 7.41940  # PO3-ASN
pair_coeff 3 152 soft 2.000000 7.51919  # PO3-VAL
pair_coeff 3 153 soft 2.000000 7.16817  # PO3-PRO
pair_coeff 3 154 soft 2.000000 7.48622  # PO3-PHE
pair_coeff 3 155 soft 2.000000 7.16817  # PO3-PRO
pair_coeff 3 156 soft 2.000000 6.63541  # PO3-GLY
pair_coeff 3 157 soft 2.000000 7.06215  # PO3-SER
pair_coeff 3 158 soft 2.000000 7.08710  # PO3-GLN
pair_coeff 3 159 soft 2.000000 7.08710  # PO3-GLN
pair_coeff 3 160 soft 2.000000 7.24746  # PO3-TYR
pair_coeff 3 161 soft 2.000000 7.27508  # PO3-ARG
pair_coeff 3 162 soft 2.000000 7.07641  # PO3-ALA
pair_coeff 3 163 soft 2.000000 7.43188  # PO3-LEU
pair_coeff 3 164 soft 2.000000 7.16817  # PO3-PRO
pair_coeff 3 165 soft 2.000000 7.40871  # PO3-GLU
pair_coeff 3 166 soft 2.000000 7.08710  # PO3-GLN
pair_coeff 3 167 soft 2.000000 7.15926  # PO3-THR
pair_coeff 3 168 soft 2.000000 7.50493  # PO3-MET
pair_coeff 3 169 soft 2.000000 7.06215  # PO3-SER
pair_coeff 3 170 soft 2.000000 7.50493  # PO3-MET
pair_coeff 3 171 soft 2.000000 7.59937  # PO3-LYS
pair_coeff 3 172 soft 2.000000 7.40871  # PO3-GLU
pair_coeff 3 173 soft 2.000000 7.50048  # PO3-ASP
pair_coeff 3 174 soft 2.000000 7.43188  # PO3-LEU
pair_coeff 3 175 soft 2.000000 7.40871  # PO3-GLU
pair_coeff 3 176 soft 2.000000 7.55126  # PO3-TRP
pair_coeff 3 177 soft 2.000000 7.44079  # PO3-ILE
pair_coeff 3 178 soft 2.000000 7.16817  # PO3-PRO
pair_coeff 3 179 soft 2.000000 7.41940  # PO3-ASN
pair_coeff 3 180 soft 2.000000 7.41940  # PO3-ASN
pair_coeff 3 181 soft 2.000000 7.51919  # PO3-VAL
pair_coeff 3 182 soft 2.000000 7.59937  # PO3-LYS
pair_coeff 3 183 soft 2.000000 7.15926  # PO3-THR
pair_coeff 3 184 soft 2.000000 7.08710  # PO3-GLN
pair_coeff 3 185 soft 2.000000 7.07641  # PO3-ALA
pair_coeff 3 186 soft 2.000000 7.50493  # PO3-MET
pair_coeff 3 187 soft 2.000000 7.48622  # PO3-PHE
pair_coeff 3 188 soft 2.000000 7.27508  # PO3-ARG
pair_coeff 3 189 soft 2.000000 7.27508  # PO3-ARG
pair_coeff 3 190 soft 2.000000 7.07641  # PO3-ALA
pair_coeff 3 191 soft 2.000000 7.48622  # PO3-PHE
pair_coeff 3 192 soft 2.000000 7.43188  # PO3-LEU
pair_coeff 3 193 soft 2.000000 7.74726  # PO3-HIS
pair_coeff 3 194 soft 2.000000 7.55126  # PO3-TRP
pair_coeff 3 195 soft 2.000000 7.12719  # PO3-BAS
pair_coeff 4 4 soft 2.000000 7.12719  # SUG-SUG
pair_coeff 4 5 soft 2.000000 7.56359  # SUG-MG
pair_coeff 4 6 soft 2.000000 7.50493  # SUG-MET
pair_coeff 4 7 soft 2.000000 7.27508  # SUG-ARG
pair_coeff 4 8 soft 2.000000 7.40871  # SUG-GLU
pair_coeff 4 9 soft 2.000000 7.52720  # SUG-CYS
pair_coeff 4 10 soft 2.000000 7.44079  # SUG-ILE
pair_coeff 4 11 soft 2.000000 7.06215  # SUG-SER
pair_coeff 4 12 soft 2.000000 7.74726  # SUG-HIS
pair_coeff 4 13 soft 2.000000 7.51919  # SUG-VAL
pair_coeff 4 14 soft 2.000000 6.63541  # SUG-GLY
pair_coeff 4 15 soft 2.000000 7.08710  # SUG-GLN
pair_coeff 4 16 soft 2.000000 7.07641  # SUG-ALA
pair_coeff 4 17 soft 2.000000 7.41940  # SUG-ASN
pair_coeff 4 18 soft 2.000000 7.55126  # SUG-TRP
pair_coeff 4 19 soft 2.000000 7.43188  # SUG-LEU
pair_coeff 4 20 soft 2.000000 7.24746  # SUG-TYR
pair_coeff 4 21 soft 2.000000 7.16817  # SUG-PRO
pair_coeff 4 22 soft 2.000000 7.50048  # SUG-ASP
pair_coeff 4 23 soft 2.000000 7.59937  # SUG-LYS
pair_coeff 4 24 soft 2.000000 7.15926  # SUG-THR
pair_coeff 4 25 soft 2.000000 7.48622  # SUG-PHE